# Objective value = 7
x0,1_2 0
x0,1_4 0
x0,1_17 0
x0,1_19 0
x0,1_20 0
x0,1_40 0
x0,1_45 0
x0,1_55 0
x0,1_70 0
x0,1_72 0
x0,2_2 0
x0,2_4 0
x0,2_17 0
x0,2_19 0
x0,2_20 0
x0,2_40 0
x0,2_45 0
x0,2_55 1
x0,2_70 0
x0,2_72 0
x0,3_2 0
x0,3_4 0
x0,3_17 0
x0,3_19 0
x0,3_20 0
x0,3_40 0
x0,3_45 0
x0,3_55 0
x0,3_70 1
x0,3_72 0
x0,4_2 0
x0,4_4 0
x0,4_17 0
x0,4_19 0
x0,4_20 0
x0,4_40 0
x0,4_45 0
x0,4_55 0
x0,4_70 0
x0,4_72 1
x0,5_2 0
x0,5_4 0
x0,5_17 0
x0,5_19 0
x0,5_20 0
x0,5_40 0
x0,5_45 0
x0,5_55 0
x0,5_70 0
x0,5_72 0
x0,6_2 0
x0,6_4 0
x0,6_17 0
x0,6_19 0
x0,6_20 0
x0,6_40 0
x0,6_45 0
x0,6_55 0
x0,6_70 0
x0,6_72 0
x0,7_2 0
x0,7_4 0
x0,7_17 0
x0,7_19 0
x0,7_20 0
x0,7_40 0
x0,7_45 0
x0,7_55 0
x0,7_70 0
x0,7_72 0
x0,8_2 0
x0,8_4 0
x0,8_17 0
x0,8_19 0
x0,8_20 0
x0,8_40 0
x0,8_45 0
x0,8_55 0
x0,8_70 0
x0,8_72 0
x0,9_2 0
x0,9_4 0
x0,9_17 0
x0,9_19 0
x0,9_20 0
x0,9_40 0
x0,9_45 0
x0,9_55 0
x0,9_70 0
x0,9_72 0
x0,10_2 0
x0,10_4 0
x0,10_17 0
x0,10_19 0
x0,10_20 0
x0,10_40 0
x0,10_45 0
x0,10_55 0
x0,10_70 0
x0,10_72 0
x1,2_2 0
x1,2_4 0
x1,2_17 0
x1,2_19 0
x1,2_20 0
x1,2_40 0
x1,2_45 0
x1,2_55 0
x1,2_70 0
x1,2_72 0
x1,3_2 0
x1,3_4 0
x1,3_17 0
x1,3_19 0
x1,3_20 0
x1,3_40 1
x1,3_45 0
x1,3_55 0
x1,3_70 0
x1,3_72 0
x1,4_2 0
x1,4_4 0
x1,4_17 0
x1,4_19 0
x1,4_20 0
x1,4_40 0
x1,4_45 0
x1,4_55 0
x1,4_70 0
x1,4_72 0
x1,5_2 0
x1,5_4 0
x1,5_17 0
x1,5_19 0
x1,5_20 0
x1,5_40 0
x1,5_45 0
x1,5_55 0
x1,5_70 0
x1,5_72 0
x1,6_2 0
x1,6_4 0
x1,6_17 0
x1,6_19 0
x1,6_20 0
x1,6_40 0
x1,6_45 1
x1,6_55 0
x1,6_70 0
x1,6_72 0
x1,7_2 0
x1,7_4 0
x1,7_17 0
x1,7_19 0
x1,7_20 0
x1,7_40 0
x1,7_45 0
x1,7_55 0
x1,7_70 0
x1,7_72 0
x1,8_2 0
x1,8_4 0
x1,8_17 0
x1,8_19 0
x1,8_20 0
x1,8_40 0
x1,8_45 0
x1,8_55 0
x1,8_70 0
x1,8_72 0
x1,9_2 0
x1,9_4 0
x1,9_17 0
x1,9_19 0
x1,9_20 0
x1,9_40 0
x1,9_45 0
x1,9_55 0
x1,9_70 0
x1,9_72 0
x1,10_2 0
x1,10_4 0
x1,10_17 0
x1,10_19 0
x1,10_20 0
x1,10_40 0
x1,10_45 0
x1,10_55 0
x1,10_70 0
x1,10_72 0
x2,3_2 0
x2,3_4 0
x2,3_17 0
x2,3_19 0
x2,3_20 0
x2,3_40 0
x2,3_45 0
x2,3_55 0
x2,3_70 0
x2,3_72 0
x2,4_2 0
x2,4_4 0
x2,4_17 1
x2,4_19 0
x2,4_20 0
x2,4_40 0
x2,4_45 0
x2,4_55 0
x2,4_70 0
x2,4_72 0
x2,5_2 0
x2,5_4 0
x2,5_17 0
x2,5_19 1
x2,5_20 0
x2,5_40 0
x2,5_45 0
x2,5_55 0
x2,5_70 0
x2,5_72 0
x2,6_2 0
x2,6_4 0
x2,6_17 0
x2,6_19 0
x2,6_20 1
x2,6_40 0
x2,6_45 0
x2,6_55 0
x2,6_70 0
x2,6_72 0
x2,7_2 0
x2,7_4 0
x2,7_17 0
x2,7_19 0
x2,7_20 0
x2,7_40 0
x2,7_45 0
x2,7_55 0
x2,7_70 0
x2,7_72 0
x2,8_2 0
x2,8_4 0
x2,8_17 0
x2,8_19 0
x2,8_20 0
x2,8_40 0
x2,8_45 0
x2,8_55 0
x2,8_70 0
x2,8_72 0
x2,9_2 0
x2,9_4 0
x2,9_17 0
x2,9_19 0
x2,9_20 0
x2,9_40 0
x2,9_45 0
x2,9_55 0
x2,9_70 0
x2,9_72 0
x2,10_2 0
x2,10_4 0
x2,10_17 0
x2,10_19 0
x2,10_20 0
x2,10_40 0
x2,10_45 0
x2,10_55 0
x2,10_70 0
x2,10_72 0
x3,4_2 0
x3,4_4 0
x3,4_17 0
x3,4_19 0
x3,4_20 0
x3,4_40 0
x3,4_45 0
x3,4_55 0
x3,4_70 0
x3,4_72 0
x3,5_2 0
x3,5_4 1
x3,5_17 0
x3,5_19 0
x3,5_20 0
x3,5_40 0
x3,5_45 0
x3,5_55 0
x3,5_70 0
x3,5_72 0
x3,6_2 0
x3,6_4 0
x3,6_17 0
x3,6_19 0
x3,6_20 0
x3,6_40 0
x3,6_45 0
x3,6_55 0
x3,6_70 0
x3,6_72 0
x3,7_2 0
x3,7_4 0
x3,7_17 0
x3,7_19 0
x3,7_20 0
x3,7_40 0
x3,7_45 0
x3,7_55 0
x3,7_70 0
x3,7_72 0
x3,8_2 0
x3,8_4 0
x3,8_17 0
x3,8_19 0
x3,8_20 0
x3,8_40 0
x3,8_45 0
x3,8_55 0
x3,8_70 0
x3,8_72 0
x3,9_2 0
x3,9_4 0
x3,9_17 0
x3,9_19 0
x3,9_20 0
x3,9_40 0
x3,9_45 0
x3,9_55 0
x3,9_70 0
x3,9_72 0
x3,10_2 0
x3,10_4 0
x3,10_17 0
x3,10_19 0
x3,10_20 0
x3,10_40 0
x3,10_45 0
x3,10_55 0
x3,10_70 0
x3,10_72 0
x4,5_2 1
x4,5_4 0
x4,5_17 0
x4,5_19 0
x4,5_20 0
x4,5_40 0
x4,5_45 0
x4,5_55 0
x4,5_70 0
x4,5_72 0
x4,6_2 0
x4,6_4 0
x4,6_17 0
x4,6_19 0
x4,6_20 0
x4,6_40 0
x4,6_45 0
x4,6_55 0
x4,6_70 0
x4,6_72 0
x4,7_2 0
x4,7_4 0
x4,7_17 0
x4,7_19 0
x4,7_20 0
x4,7_40 0
x4,7_45 0
x4,7_55 0
x4,7_70 0
x4,7_72 0
x4,8_2 0
x4,8_4 0
x4,8_17 0
x4,8_19 0
x4,8_20 0
x4,8_40 0
x4,8_45 0
x4,8_55 0
x4,8_70 0
x4,8_72 0
x4,9_2 0
x4,9_4 0
x4,9_17 0
x4,9_19 0
x4,9_20 0
x4,9_40 0
x4,9_45 0
x4,9_55 0
x4,9_70 0
x4,9_72 0
x4,10_2 0
x4,10_4 0
x4,10_17 0
x4,10_19 0
x4,10_20 0
x4,10_40 0
x4,10_45 0
x4,10_55 0
x4,10_70 0
x4,10_72 0
x5,6_2 0
x5,6_4 0
x5,6_17 0
x5,6_19 0
x5,6_20 0
x5,6_40 0
x5,6_45 0
x5,6_55 0
x5,6_70 0
x5,6_72 0
x5,7_2 0
x5,7_4 0
x5,7_17 0
x5,7_19 0
x5,7_20 0
x5,7_40 0
x5,7_45 0
x5,7_55 0
x5,7_70 0
x5,7_72 0
x5,8_2 0
x5,8_4 0
x5,8_17 0
x5,8_19 0
x5,8_20 0
x5,8_40 0
x5,8_45 0
x5,8_55 0
x5,8_70 0
x5,8_72 0
x5,9_2 0
x5,9_4 0
x5,9_17 0
x5,9_19 0
x5,9_20 0
x5,9_40 0
x5,9_45 0
x5,9_55 0
x5,9_70 0
x5,9_72 0
x5,10_2 0
x5,10_4 0
x5,10_17 0
x5,10_19 0
x5,10_20 0
x5,10_40 0
x5,10_45 0
x5,10_55 0
x5,10_70 0
x5,10_72 0
x6,7_2 0
x6,7_4 0
x6,7_17 0
x6,7_19 0
x6,7_20 0
x6,7_40 0
x6,7_45 0
x6,7_55 0
x6,7_70 0
x6,7_72 0
x6,8_2 0
x6,8_4 0
x6,8_17 0
x6,8_19 0
x6,8_20 0
x6,8_40 0
x6,8_45 0
x6,8_55 0
x6,8_70 0
x6,8_72 0
x6,9_2 0
x6,9_4 0
x6,9_17 0
x6,9_19 0
x6,9_20 0
x6,9_40 0
x6,9_45 0
x6,9_55 0
x6,9_70 0
x6,9_72 0
x6,10_2 0
x6,10_4 0
x6,10_17 0
x6,10_19 0
x6,10_20 0
x6,10_40 0
x6,10_45 0
x6,10_55 0
x6,10_70 0
x6,10_72 0
x7,8_2 0
x7,8_4 0
x7,8_17 0
x7,8_19 0
x7,8_20 0
x7,8_40 0
x7,8_45 0
x7,8_55 0
x7,8_70 0
x7,8_72 0
x7,9_2 0
x7,9_4 0
x7,9_17 0
x7,9_19 0
x7,9_20 0
x7,9_40 0
x7,9_45 0
x7,9_55 0
x7,9_70 0
x7,9_72 0
x7,10_2 0
x7,10_4 0
x7,10_17 0
x7,10_19 0
x7,10_20 0
x7,10_40 0
x7,10_45 0
x7,10_55 0
x7,10_70 0
x7,10_72 0
x8,9_2 0
x8,9_4 0
x8,9_17 0
x8,9_19 0
x8,9_20 0
x8,9_40 0
x8,9_45 0
x8,9_55 0
x8,9_70 0
x8,9_72 0
x8,10_2 0
x8,10_4 0
x8,10_17 0
x8,10_19 0
x8,10_20 0
x8,10_40 0
x8,10_45 0
x8,10_55 0
x8,10_70 0
x8,10_72 0
x9,10_2 0
x9,10_4 0
x9,10_17 0
x9,10_19 0
x9,10_20 0
x9,10_40 0
x9,10_45 0
x9,10_55 0
x9,10_70 0
x9,10_72 0
z0 1
z1 1
z2 1
z3 1
z4 1
z5 1
z6 1
z7 0
z8 0
z9 0
z10 0
p0 0
p1 30
p2 55
p3 70
p4 72
p5 74
p6 75
p7 76
p8 77
p9 78
p10 79
